111 119 84 36 32 113 110 98 25 48 68 63 70 97 7 26 88 86 69 64 124 129 61 109 76 11 5 28 115 117 112 62 105 128 16 45 127 107 104 43 34 1 41 39 71 130 50 2 118 20 80 46 18 108 8 126 114 3 83 30 59 90 125 85 66 78 121 13 67 96 10 14 122 55 102 6 60 51 120 53 91 72 49 58 106 42 44 40 47 37 22 23 33 21 93 4 35 54 17 31 27 19 100 15 24 116 95 79 38 92 73 99 74 75 52 9 57 56 65 12 87 81 29 89 94 77 103 82 101 123 
6651